<instance format="XCSP3" type="CSP">
  <variables>
    <array id="x" size="[10][10]"> 1..11 </array>
    <array id="p" size="[10]"> 0..10 </array>
  </variables>
  <constraints>
    <cardinality>
      <list> x[][] </list>
      <values> 1 2 3 4 5 6 7 8 9 10 11 </values>
      <occurs> 1 1 1 1 1 1 1 1 1 1 90 </occurs>
    </cardinality>
    <group>
      <ordered>
        <list> %... </list>
        <operator> le </operator>
      </ordered>
      <args> x[0][] </args>
      <args> x[1][] </args>
      <args> x[2][] </args>
      <args> x[3][] </args>
      <args> x[4][] </args>
      <args> x[5][] </args>
      <args> x[6][] </args>
      <args> x[7][] </args>
      <args> x[8][] </args>
      <args> x[9][] </args>
    </group>
    <group>
      <ordered>
        <list> %... </list>
        <operator> le </operator>
      </ordered>
      <args> x[][0] </args>
      <args> x[][1] </args>
      <args> x[][2] </args>
      <args> x[][3] </args>
      <args> x[][4] </args>
      <args> x[][5] </args>
      <args> x[][6] </args>
      <args> x[][7] </args>
      <args> x[][8] </args>
      <args> x[][9] </args>
    </group>
    <group note="computing the structure">
      <sum>
        <list> %... </list>
        <condition> (eq,%0) </condition>
      </sum>
      <args> p[0] le(x[0][0],10) le(x[0][1],10) le(x[0][2],10) le(x[0][3],10) le(x[0][4],10) le(x[0][5],10) le(x[0][6],10) le(x[0][7],10) le(x[0][8],10) le(x[0][9],10) </args>
      <args> p[1] le(x[1][0],10) le(x[1][1],10) le(x[1][2],10) le(x[1][3],10) le(x[1][4],10) le(x[1][5],10) le(x[1][6],10) le(x[1][7],10) le(x[1][8],10) le(x[1][9],10) </args>
      <args> p[2] le(x[2][0],10) le(x[2][1],10) le(x[2][2],10) le(x[2][3],10) le(x[2][4],10) le(x[2][5],10) le(x[2][6],10) le(x[2][7],10) le(x[2][8],10) le(x[2][9],10) </args>
      <args> p[3] le(x[3][0],10) le(x[3][1],10) le(x[3][2],10) le(x[3][3],10) le(x[3][4],10) le(x[3][5],10) le(x[3][6],10) le(x[3][7],10) le(x[3][8],10) le(x[3][9],10) </args>
      <args> p[4] le(x[4][0],10) le(x[4][1],10) le(x[4][2],10) le(x[4][3],10) le(x[4][4],10) le(x[4][5],10) le(x[4][6],10) le(x[4][7],10) le(x[4][8],10) le(x[4][9],10) </args>
      <args> p[5] le(x[5][0],10) le(x[5][1],10) le(x[5][2],10) le(x[5][3],10) le(x[5][4],10) le(x[5][5],10) le(x[5][6],10) le(x[5][7],10) le(x[5][8],10) le(x[5][9],10) </args>
      <args> p[6] le(x[6][0],10) le(x[6][1],10) le(x[6][2],10) le(x[6][3],10) le(x[6][4],10) le(x[6][5],10) le(x[6][6],10) le(x[6][7],10) le(x[6][8],10) le(x[6][9],10) </args>
      <args> p[7] le(x[7][0],10) le(x[7][1],10) le(x[7][2],10) le(x[7][3],10) le(x[7][4],10) le(x[7][5],10) le(x[7][6],10) le(x[7][7],10) le(x[7][8],10) le(x[7][9],10) </args>
      <args> p[8] le(x[8][0],10) le(x[8][1],10) le(x[8][2],10) le(x[8][3],10) le(x[8][4],10) le(x[8][5],10) le(x[8][6],10) le(x[8][7],10) le(x[8][8],10) le(x[8][9],10) </args>
      <args> p[9] le(x[9][0],10) le(x[9][1],10) le(x[9][2],10) le(x[9][3],10) le(x[9][4],10) le(x[9][5],10) le(x[9][6],10) le(x[9][7],10) le(x[9][8],10) le(x[9][9],10) </args>
    </group>
    <sum>
      <list> p[] </list>
      <condition> (eq,10) </condition>
    </sum>
    <ordered>
      <list> p[] </list>
      <operator> ge </operator>
    </ordered>
  </constraints>
</instance>